Results/Experiment 2 Results/New Benchmark/output_p1_0.75_p2_0.00_n_40_04.lp
clingo version 5.4.0
Reading from tempSRTISolver.lp ...
Solving...
Answer: 1
matched(4,2) matched(5,3) matched(2,4) matched(3,5) matched(7,6) matched(6,7) matched(1,8) matched(8,1) matched(9,10) matched(12,11) matched(11,12) matched(10,9) matched(18,14) matched(19,15) matched(13,16) matched(20,17) matched(14,18) matched(15,19) matched(17,20) matched(16,13) matched(23,22) matched(22,23) matched(21,24) matched(28,25) matched(27,26) matched(26,27) matched(25,28) matched(24,21) matched(29,30) matched(32,31) matched(31,32) matched(30,29) matched(35,34) matched(34,35) matched(38,36) matched(40,37) matched(36,38) matched(33,39) matched(37,40) matched(39,33)
Optimization: 260
Answer: 2
matched(4,2) matched(5,3) matched(2,4) matched(3,5) matched(7,6) matched(6,7) matched(1,8) matched(8,1) matched(9,10) matched(12,11) matched(11,12) matched(10,9) matched(18,14) matched(19,15) matched(17,16) matched(16,17) matched(14,18) matched(15,19) matched(13,20) matched(20,13) matched(23,22) matched(22,23) matched(21,24) matched(28,25) matched(27,26) matched(26,27) matched(25,28) matched(24,21) matched(29,30) matched(32,31) matched(31,32) matched(30,29) matched(35,34) matched(34,35) matched(38,36) matched(40,37) matched(36,38) matched(33,39) matched(37,40) matched(39,33)
Optimization: 254
Answer: 3
matched(4,2) matched(5,3) matched(2,4) matched(3,5) matched(7,6) matched(6,7) matched(1,8) matched(8,1) matched(9,10) matched(12,11) matched(11,12) matched(10,9) matched(18,14) matched(19,15) matched(17,16) matched(16,17) matched(14,18) matched(15,19) matched(13,20) matched(20,13) matched(23,22) matched(22,23) matched(25,24) matched(24,25) matched(27,26) matched(26,27) matched(21,28) matched(28,21) matched(29,30) matched(32,31) matched(31,32) matched(30,29) matched(35,34) matched(34,35) matched(38,36) matched(40,37) matched(36,38) matched(33,39) matched(37,40) matched(39,33)
Optimization: 249
Answer: 4
matched(4,2) matched(5,3) matched(2,4) matched(3,5) matched(7,6) matched(6,7) matched(1,8) matched(8,1) matched(9,10) matched(12,11) matched(11,12) matched(10,9) matched(18,14) matched(19,15) matched(17,16) matched(16,17) matched(14,18) matched(15,19) matched(13,20) matched(20,13) matched(24,22) matched(25,23) matched(22,24) matched(23,25) matched(27,26) matched(26,27) matched(21,28) matched(28,21) matched(29,30) matched(32,31) matched(31,32) matched(30,29) matched(35,34) matched(34,35) matched(38,36) matched(40,37) matched(36,38) matched(33,39) matched(37,40) matched(39,33)
Optimization: 240
Answer: 5
matched(6,2) matched(7,3) matched(1,4) matched(8,5) matched(2,6) matched(3,7) matched(5,8) matched(4,1) matched(11,10) matched(10,11) matched(9,12) matched(12,9) matched(16,14) matched(17,15) matched(14,16) matched(15,17) matched(19,18) matched(18,19) matched(13,20) matched(20,13) matched(24,22) matched(25,23) matched(22,24) matched(23,25) matched(27,26) matched(26,27) matched(21,28) matched(28,21) matched(29,30) matched(32,31) matched(31,32) matched(30,29) matched(35,34) matched(34,35) matched(38,36) matched(40,37) matched(36,38) matched(33,39) matched(37,40) matched(39,33)
Optimization: 232
Answer: 6
matched(4,2) matched(5,3) matched(2,4) matched(3,5) matched(7,6) matched(6,7) matched(1,8) matched(8,1) matched(9,10) matched(12,11) matched(11,12) matched(10,9) matched(15,14) matched(14,15) matched(13,16) matched(20,17) matched(19,18) matched(18,19) matched(17,20) matched(16,13) matched(24,22) matched(25,23) matched(22,24) matched(23,25) matched(27,26) matched(26,27) matched(21,28) matched(28,21) matched(31,30) matched(30,31) matched(29,32) matched(32,29) matched(36,34) matched(37,35) matched(34,36) matched(35,37) matched(39,38) matched(38,39) matched(33,40) matched(40,33)
Optimization: 230
Answer: 7
matched(3,2) matched(2,3) matched(6,4) matched(8,5) matched(4,6) matched(1,7) matched(5,8) matched(7,1) matched(11,10) matched(10,11) matched(9,12) matched(12,9) matched(15,14) matched(14,15) matched(18,16) matched(20,17) matched(16,18) matched(13,19) matched(17,20) matched(19,13) matched(24,22) matched(25,23) matched(22,24) matched(23,25) matched(27,26) matched(26,27) matched(21,28) matched(28,21) matched(31,30) matched(30,31) matched(29,32) matched(32,29) matched(35,34) matched(34,35) matched(37,36) matched(36,37) matched(39,38) matched(38,39) matched(33,40) matched(40,33)
Optimization: 229
Answer: 8
matched(3,2) matched(2,3) matched(6,4) matched(8,5) matched(4,6) matched(1,7) matched(5,8) matched(7,1) matched(11,10) matched(10,11) matched(9,12) matched(12,9) matched(16,14) matched(17,15) matched(14,16) matched(15,17) matched(19,18) matched(18,19) matched(13,20) matched(20,13) matched(24,22) matched(25,23) matched(22,24) matched(23,25) matched(27,26) matched(26,27) matched(21,28) matched(28,21) matched(31,30) matched(30,31) matched(29,32) matched(32,29) matched(35,34) matched(34,35) matched(37,36) matched(36,37) matched(39,38) matched(38,39) matched(33,40) matched(40,33)
Optimization: 223
Answer: 9
matched(4,2) matched(5,3) matched(2,4) matched(3,5) matched(7,6) matched(6,7) matched(1,8) matched(8,1) matched(9,10) matched(12,11) matched(11,12) matched(10,9) matched(16,14) matched(17,15) matched(14,16) matched(15,17) matched(19,18) matched(18,19) matched(13,20) matched(20,13) matched(24,22) matched(25,23) matched(22,24) matched(23,25) matched(27,26) matched(26,27) matched(21,28) matched(28,21) matched(29,30) matched(32,31) matched(31,32) matched(30,29) matched(36,34) matched(37,35) matched(34,36) matched(35,37) matched(39,38) matched(38,39) matched(33,40) matched(40,33)
Optimization: 221
Answer: 10
matched(4,2) matched(5,3) matched(2,4) matched(3,5) matched(7,6) matched(6,7) matched(1,8) matched(8,1) matched(11,10) matched(10,11) matched(9,12) matched(12,9) matched(16,14) matched(17,15) matched(14,16) matched(15,17) matched(19,18) matched(18,19) matched(13,20) matched(20,13) matched(24,22) matched(25,23) matched(22,24) matched(23,25) matched(27,26) matched(26,27) matched(21,28) matched(28,21) matched(31,30) matched(30,31) matched(29,32) matched(32,29) matched(36,34) matched(37,35) matched(34,36) matched(35,37) matched(39,38) matched(38,39) matched(33,40) matched(40,33)
Optimization: 217
OPTIMUM FOUND

Models       : 10
  Optimum    : yes
Optimization : 217
Calls        : 1
Time         : 0.070s (Solving: 0.04s 1st Model: 0.00s Unsat: 0.04s)
CPU Time     : 0.069s
